n=10;
hearts=90;
clubs=80;
spades=58;
diamonds=26;
blocked=16;
m=array2d(1..n, 1..n,[
	_,_,_,_,2,_,1,5,_,_,
	5,_,_,_,5,2,_,_,_,_,
	_,_,_,_,_,4,3,_,_,_,
	_,_,5,_,_,_,4,_,5,5,
	3,_,1,2,_,_,_,5,5,5,
	2,_,_,_,_,5,_,_,_,1,
	1,_,_,_,5,_,_,5,_,_,
	2,_,_,_,_,_,_,4,5,_,
	_,_,_,5,_,_,5,3,_,4,
	_,_,_,5,_,_,_,_,3,_
]);
